RAW/XX/fspd/X-n190-k8.vrp_seed-0.out
13295	31.443	33.753
