RAW/XX/fspd/X-n190-k8.vrp_seed-0.sol
Route #1: 118 31 149 139 156 108 46 135 92 81 145 115 144 94 50 178 69 55 179 62 100 8 56 130 21 68 35 142 159 102 168 120 172
Route #2: 29 83 127 44 88 165 1 72 133 129 103 10 43 58 28 138 85 104 89 109 6 2 38 36 39 30 150 147 80 169 112 73 34 4 110 66 57 19
Route #3: 37 182 160 184 45 99 131
Route #4: 63 13 171 163 128 95 143 97 24 12 86 125 176 5 47 101 146 186 87 152 41 181 54 126 76 40 32 61 180 153 84 18 185 70 141 98 148 177 71 52 123 167 136 183 25 64 188 105
Route #5: 16 170 166 157 173 132 134 161 74 111 107 33 7 155 17 79 60 116 82 122 11 175 117 26 49 119 106
Route #6: 14 67 51 93 75 121 158 164 23 113 91 59 96 9 114 65 20 162 53 154 189 140 124 187 27 15 3 90 42 48 174 151 137 77 22 78
Cost 13295.000000